# Objective value = 18
WA1n 0
WA1p 0
WA2n 1
WA2p 0
WB1n 0
WB1p 0
WB2n 1
WB2p 0
WC1n 1
WC1p 0
WD1n 0
WD1p 1
WD2n 0
WD2p 1
WE1n 0
WE1p 2
WE2n 0
WE2p 1
WF1n 4
WF1p 0
WT1n 0
WT1p 0
WT2n 0
WT2p 1
5 7
a 0
b 0
c 0
d 0
e 0
f 1
g 1
h 1
i 1
j 0
k 0
l 1
